30 61
29
6 18 24 43
2 12 0 18
7 10 7 51
4 23 5 2
1 4 6 48
7 7 0 54
4 11 26 18
5 6 0 12
2 7 6 41
6 11 8 40
10 19 14 42
5 11 0 1
4 2 5 0
5 7 25 3
2 4 24 25
7 12 16 30
7 13 23 29
3 6 2 19
6 10 10 30
9 16 9 9
1 4 25 21
4 10 6 30
6 24 0 30
9 9 9 0
1 2 6 52
5 8 25 10
5 3 25 0
7 25 18 0
21 5 2 25
